c Read 304 clauses.  114 variables
c Breaking ties randomly with seed 1
c Placed 304 terms into 54 buckets.
c Bucket 2 Reduced to term with 7 nodes
c Bucket 4 Reduced to term with 7 nodes
c Bucket 6 Reduced to term with 7 nodes
c Bucket 8 Reduced to term with 7 nodes
c Bucket 10 Reduced to term with 9 nodes
c Bucket 12 Reduced to term with 7 nodes
c Bucket 14 Reduced to term with 7 nodes
c Bucket 16 Reduced to term with 9 nodes
c Bucket 18 Reduced to term with 7 nodes
c Bucket 20 Reduced to term with 9 nodes
c Bucket 22 Reduced to term with 11 nodes
c Bucket 24 Reduced to term with 7 nodes
c Bucket 26 Reduced to term with 7 nodes
c Bucket 28 Reduced to term with 15 nodes
c Bucket 30 Reduced to term with 9 nodes
c Bucket 32 Reduced to term with 11 nodes
c Bucket 34 Reduced to term with 13 nodes
c Bucket 36 Reduced to term with 11 nodes
c Bucket 38 Reduced to term with 13 nodes
c Bucket 40 Reduced to term with 11 nodes
c Bucket 42 Reduced to term with 15 nodes
c Bucket 44 Reduced to term with 23 nodes
c Bucket 46 Reduced to term with 9 nodes
c Bucket 48 Reduced to term with 23 nodes
c Bucket 50 Reduced to term with 29 nodes
c Bucket 52 Reduced to term with 15 nodes
c Bucket 54 Reduced to term with 11 nodes
c Bucket 56 Reduced to term with 37 nodes
c Bucket 58 Reduced to term with 15 nodes
c Bucket 60 Reduced to term with 15 nodes
c Bucket 62 Reduced to term with 25 nodes
c Bucket 64 Reduced to term with 45 nodes
c Bucket 66 Reduced to term with 43 nodes
c Bucket 68 Reduced to term with 29 nodes
c Bucket 72 Reduced to term with 9 nodes
c Bucket 74 Reduced to term with 37 nodes
c Bucket 102 Reduced to term with 5 nodes
s UNSATISFIABLE

c Cache statistics
c ----------------
c Unique Access:  5355
c Unique Chain:   43
c Unique Hit:     1070
c Unique Miss:    4158
c => Hit rate =   0.20
c Operator Hits:  3959
c Operator Miss:  6213
c => Hit rate =   0.39
c Swap count =    0

c BDD statistics
c ----------------
c Total BDD nodes produced: 4158
c Input variables: 114
c Input clauses: 304
c Total clauses: 24474
c Unused+non-BDD clause IDs: 1420 (5.8%)
c Maximum live clauses: 19552
c Deleted clauses: 24170
c Final live clauses: 304
c Total variables: 4270
c Elapsed seconds: 0.019
-rw-r--r--  1 bryant  staff  922051 Mar 10 23:07 chew-40-123456.lrat
c parsed a formula with 114 variables and 304 clauses
c VERIFIED
c allocated 1024 118309 1140
c Added clauses = 24474.  Deleted clauses = 4923.  Max live clauses = 19552
c verification time = 0.02 secs
